(set-info :smt-lib-version 2.6)
(set-logic QF_LIA)
(set-info :category "industrial")
(set-info :status sat)
(declare-fun x0 () Int)
(declare-fun x1 () Int)
(declare-fun x10 () Int)
(declare-fun x11 () Int)
(declare-fun x12 () Int)
(declare-fun x13 () Int)
(declare-fun x14 () Int)
(declare-fun x15 () Int)
(declare-fun x16 () Int)
(declare-fun x17 () Int)
(declare-fun x18 () Int)
(declare-fun x19 () Int)
(declare-fun x2 () Int)
(declare-fun x20 () Int)
(declare-fun x21 () Int)
(declare-fun x22 () Int)
(declare-fun x23 () Int)
(declare-fun x24 () Int)
(declare-fun x25 () Int)
(declare-fun x26 () Int)
(declare-fun x27 () Int)
(declare-fun x28 () Int)
(declare-fun x29 () Int)
(declare-fun x3 () Int)
(declare-fun x30 () Int)
(declare-fun x31 () Int)
(declare-fun x32 () Int)
(declare-fun x33 () Int)
(declare-fun x34 () Int)
(declare-fun x35 () Int)
(declare-fun x36 () Int)
(declare-fun x37 () Int)
(declare-fun x38 () Int)
(declare-fun x39 () Int)
(declare-fun x4 () Int)
(declare-fun x5 () Int)
(declare-fun x6 () Int)
(declare-fun x7 () Int)
(declare-fun x8 () Int)
(declare-fun x9 () Int)
(assert (let ((?v_24 (* 1 x11)) (?v_61 (* 0 x19)) (?v_75 (* 0 x18)) (?v_12 (* 0 x23)) (?v_22 (* 1 x24)) (?v_51 (* 0 x25)) (?v_13 (* 0 x26)) (?v_65 (* 1 x29)) (?v_14 (* 0 x3)) (?v_3 (* 0 x32)) (?v_29 (* 0 x33)) (?v_59 (* 0 x37)) (?v_6 (* 0 x38)) (?v_4 (* 0 x39)) (?v_74 (* 0 x5)) (?v_5 (* 0 x8)) (?v_7 (* 0 x11)) (?v_17 (* 0 x0)) (?v_102 (* 2 x13)) (?v_62 (* 0 x2)) (?v_9 (* 0 x21)) (?v_10 (* 0 x22)) (?v_54 (* 1 x3)) (?v_56 (* 0 x30)) (?v_30 (* 0 x35)) (?v_15 (* 1 x18)) (?v_18 (* 0 x10)) (?v_33 (* 1 x0)) (?v_19 (* 1 x1)) (?v_53 (* 1 x12)) (?v_44 (* 1 x16)) (?v_21 (* 1 x2)) (?v_84 (* 1 x31)) (?v_28 (* 1 x32)) (?v_37 (* 1 x6)) (?v_137 (* 2 x7)) (?v_131 (* 2 x11)) (?v_49 (* 0 x14)) (?v_43 (* 0 x15)) (?v_92 (* 0 x16)) (?v_106 (* 0 x27)) (?v_26 (* 1 x21)) (?v_36 (* 0 x4)) (?v_52 (* 0 x7)) (?v_31 (* 1 x34)) (?v_41 (* 0 x12)) (?v_48 (* 0 x13)) (?v_42 (* 1 x14)) (?v_68 (* 1 x20)) (?v_64 (* 0 x24)) (?v_132 (* 2 x27)) (?v_35 (* 0 x29)) (?v_60 (* 1 x4)) (?v_90 (* 1 x7))) (let ((?v_87 (+ ?v_60 ?v_90)) (?v_85 (* 0 x1)) (?v_50 (* 0 x20)) (?v_77 (* 1 x23)) (?v_141 (* 2 x24)) (?v_107 (* 1 x25)) (?v_67 (* 1 x35)) (?v_105 (* 1 x19)) (?v_79 (* 0 x9)) (?v_76 (* 1 x27)) (?v_72 (* 1 x33)) (?v_97 (* 0 x34)) (?v_95 (* 1 x36)) (?v_86 (* 1 x15)) (?v_78 (* 0 x36)) (?v_136 (* 2 x28)) (?v_124 (* 1 x39)) (?v_89 (* 0 x28)) (?v_81 (* 0 x31)) (?v_101 (* 1 x37)) (?v_120 (* 2 x38)) (?v_83 (* 0 x17)) (?v_94 (* 0 x6)) (?v_118 (* 1 x5)) (?v_99 (* 1 x22)) (?v_100 (* 1 x38)) (?v_117 (* 1 x30)) (?v_103 (* 1 x10)) (?v_113 (* 1 x9)) (?v_109 (* 1 x26)) (?v_112 (* 1 x28)) (?v_108 (* 1 x8))) (let ((?v_134 (+ ?v_60 ?v_108)) (?v_129 (+ ?v_108 (* 2 x31))) (?v_126 (+ ?v_108 ?v_113)) (?v_121 (* 2 x5)) (?v_125 (* 1 x13)) (?v_143 (* 2 x18)) (?v_127 (* 1 x17))) (let ((?v_130 (+ ?v_90 ?v_126)) (?v_142 (* 2 x25)) (?v_39 (* (- 1) x10)) (?v_98 (* (- 1) x15)) (?v_20 (* (- 1) x20)) (?v_0 (* (- 1) x17)) (?v_70 (* (- 1) x22)) (?v_80 (* (- 1) x35)) (?v_47 (* (- 1) x6)) (?v_1 (* (- 1) x7)) (?v_2 (* (- 1) x9)) (?v_38 (* (- 1) x1)) (?v_16 (* (- 1) x12)) (?v_63 (* (- 1) x23)) (?v_8 (* (- 1) x27)) (?v_23 (* (- 1) x36)) (?v_11 (* (- 1) x5)) (?v_32 (* (- 1) x14)) (?v_66 (* (- 1) x37)) (?v_91 (* (- 1) x13)) (?v_25 (* (- 1) x18)) (?v_46 (* (- 1) x19)) (?v_27 (* (- 1) x28)) (?v_40 (* (- 1) x3)) (?v_93 (* (- 1) x33)) (?v_34 (* (- 1) x16)) (?v_45 (* (- 1) x2)) (?v_57 (* (- 1) x31)) (?v_133 (* (- 2) x33)) (?v_114 (* (- 1) x25)) (?v_96 (* (- 1) x38)) (?v_55 (* (- 1) x11)) (?v_116 (* (- 1) x29)) (?v_58 (* (- 1) x32)) (?v_71 (* (- 1) x30)) (?v_69 (* (- 1) x21)) (?v_73 (* (- 1) x34)) (?v_110 (* (- 2) x0)) (?v_115 (* (- 1) x4)) (?v_111 (* (- 1) x24)) (?v_82 (* (- 1) x26)) (?v_138 (* (- 2) x36)) (?v_88 (* (- 2) x6)) (?v_119 (* (- 2) x8)) (?v_123 (* (- 1) x8)) (?v_128 (* (- 1) x0)) (?v_104 (* (- 1) x39)) (?v_122 (* (- 2) x13)) (?v_135 (* (- 2) x11)) (?v_139 (* (- 2) x15)) (?v_140 (* (- 2) x30))) (and (<= (+ ?v_39 (+ ?v_24 (+ ?v_98 (+ ?v_20 (+ ?v_61 (+ (* 2 x1) (+ (* 2 x14) (+ ?v_0 (+ ?v_70 (+ ?v_80 (+ ?v_47 (+ ?v_1 (+ ?v_2 (+ ?v_75 (+ ?v_12 (+ ?v_22 (+ ?v_51 (+ ?v_13 (+ ?v_65 (+ ?v_14 (+ ?v_3 (+ ?v_29 (+ ?v_59 (+ ?v_6 (+ ?v_4 (+ ?v_74 ?v_5)))))))))))))))))))))))))) 1) (<= (+ ?v_38 (+ ?v_7 (+ ?v_16 (+ ?v_17 (+ ?v_102 (+ ?v_0 (+ ?v_62 (+ ?v_9 (+ ?v_10 (+ ?v_63 (+ ?v_8 (+ ?v_1 (+ ?v_54 (+ ?v_2 (+ (* 3 x24) (+ ?v_56 (+ ?v_3 (+ ?v_23 (+ ?v_11 (+ ?v_30 (+ ?v_4 (+ ?v_5 (+ ?v_15 ?v_6))))))))))))))))))))))) 1) (<= (+ ?v_18 (+ ?v_7 (+ ?v_32 (+ ?v_8 (+ ?v_9 (+ ?v_10 (+ ?v_33 (+ ?v_19 (+ ?v_53 (+ ?v_44 (+ ?v_0 (+ ?v_66 (+ ?v_11 (+ ?v_12 (+ ?v_13 (+ ?v_14 (+ ?v_4 (+ ?v_5 (+ ?v_15 (+ ?v_21 (+ ?v_84 (+ ?v_28 (+ ?v_37 ?v_137))))))))))))))))))))))) 1) (<= (+ ?v_16 (+ ?v_91 (+ ?v_17 (+ ?v_18 (+ ?v_131 (+ ?v_49 (+ ?v_43 (+ ?v_19 (+ ?v_92 (+ ?v_0 (+ ?v_25 (+ ?v_46 (+ ?v_20 (+ ?v_106 (+ ?v_21 (+ ?v_26 (+ ?v_22 (+ ?v_27 (+ ?v_40 (+ ?v_3 (+ ?v_93 (+ ?v_23 (+ ?v_36 (+ ?v_52 (+ ?v_2 ?v_31))))))))))))))))))))))))) (- 1)) (<= (+ ?v_17 (+ ?v_24 (+ ?v_41 (+ ?v_48 (+ ?v_42 (+ ?v_34 (+ ?v_0 (+ ?v_25 (+ ?v_45 (+ ?v_68 (+ ?v_64 (+ ?v_26 (+ ?v_13 (+ ?v_132 (+ ?v_27 (+ ?v_35 (+ ?v_2 (+ ?v_28 (+ ?v_29 (+ ?v_30 (+ ?v_6 (+ ?v_31 ?v_87)))))))))))))))))))))) (- 1)) (<= (+ ?v_32 (+ ?v_85 (+ ?v_33 (+ ?v_24 (+ (* 2 x12) (+ ?v_34 (+ ?v_0 (+ ?v_25 (+ ?v_50 (+ ?v_35 (+ ?v_21 (+ ?v_77 (+ ?v_141 (+ ?v_107 (+ ?v_57 (+ ?v_3 (+ ?v_29 (+ ?v_23 (+ ?v_67 (+ ?v_6 (+ ?v_4 (+ ?v_36 (+ ?v_37 ?v_5))))))))))))))))))))))) 0) (<= (+ ?v_38 (+ ?v_39 (+ ?v_20 (+ ?v_8 (+ ?v_40 (+ ?v_1 (+ ?v_24 (+ ?v_41 (+ ?v_42 (+ ?v_43 (+ (* (- 2) x26) (+ ?v_133 (+ ?v_17 (+ ?v_44 (+ ?v_25 (+ ?v_105 (+ ?v_45 (+ ?v_114 (+ ?v_27 (+ ?v_11 (+ ?v_12 (+ ?v_30 (+ (* 2 x37) (+ ?v_96 (+ ?v_4 (+ ?v_36 (+ ?v_37 (+ ?v_5 ?v_79)))))))))))))))))))))))))))) 0) (<= (+ (* (- 3) x15) (+ ?v_38 (+ ?v_55 (+ ?v_46 (+ ?v_116 (+ ?v_58 (+ ?v_47 (+ ?v_2 (+ ?v_48 (+ ?v_49 (+ ?v_50 (+ ?v_9 (+ ?v_22 (+ ?v_51 (+ ?v_13 (+ ?v_71 (+ ?v_52 (+ ?v_5 (+ ?v_33 (+ ?v_53 (+ ?v_76 (+ ?v_54 (+ ?v_72 (* 2 x22)))))))))))))))))))))))) 1) (<= (+ (* (- 2) x3) (+ ?v_55 (+ ?v_17 (+ ?v_19 (+ ?v_42 (+ ?v_34 (+ ?v_25 (+ ?v_46 (+ ?v_50 (+ ?v_69 (+ ?v_12 (+ ?v_35 (+ ?v_56 (+ (* 3 x17) (+ ?v_57 (+ ?v_58 (+ ?v_11 (+ ?v_2 (+ ?v_97 (+ ?v_59 (+ ?v_52 (+ ?v_95 (+ ?v_6 (+ ?v_60 (+ ?v_37 (* 2 x8)))))))))))))))))))))))))) 1) (<= (+ ?v_18 (+ (* (- 2) x7) (+ ?v_61 (+ ?v_42 (+ ?v_86 (+ ?v_0 (+ ?v_62 (+ ?v_9 (+ ?v_63 (+ ?v_64 (+ ?v_13 (+ ?v_65 (+ ?v_56 (+ ?v_57 (+ ?v_29 (+ ?v_73 (+ ?v_66 (+ ?v_47 (+ ?v_78 (+ ?v_36 (+ ?v_5 ?v_67))))))))))))))))))))) (- 1)) (<= (+ ?v_17 (+ ?v_49 (+ ?v_43 (+ ?v_53 (+ ?v_34 (+ (* (- 2) x35) (+ ?v_25 (+ ?v_46 (+ ?v_45 (+ ?v_68 (+ ?v_69 (+ ?v_70 (+ ?v_35 (+ ?v_14 (+ ?v_22 (+ ?v_71 (+ ?v_72 (+ ?v_136 (+ ?v_57 (+ ?v_73 (+ ?v_23 (+ ?v_2 (+ ?v_59 (+ ?v_6 (+ ?v_74 ?v_124))))))))))))))))))))))))) 1) (<= (+ ?v_110 (+ ?v_18 (+ ?v_46 (+ ?v_20 (+ ?v_43 (+ ?v_53 (+ ?v_70 (+ ?v_44 (+ ?v_0 (+ ?v_75 (+ ?v_64 (+ ?v_51 (+ ?v_13 (+ ?v_21 (+ ?v_76 (+ ?v_89 (+ ?v_29 (+ ?v_77 (+ ?v_28 (+ ?v_73 (+ ?v_115 (+ ?v_1 (+ ?v_81 (+ ?v_78 (+ ?v_101 (+ ?v_74 (+ ?v_5 (+ ?v_79 ?v_120)))))))))))))))))))))))))))) 0) (<= (+ ?v_18 (+ ?v_32 (+ ?v_41 (+ ?v_43 (+ ?v_33 (+ ?v_34 (+ ?v_25 (+ ?v_46 (+ ?v_111 (+ ?v_82 (+ ?v_8 (+ ?v_83 (+ ?v_68 (+ ?v_54 (+ ?v_3 (+ ?v_29 (+ ?v_73 (+ ?v_80 (+ ?v_81 (+ ?v_78 (+ ?v_4 (+ ?v_94 (+ ?v_52 (+ ?v_79 ?v_118)))))))))))))))))))))))) (- 1)) (<= (+ ?v_55 (+ ?v_19 (+ ?v_16 (+ ?v_43 (+ ?v_50 (+ ?v_82 (+ ?v_44 (+ ?v_138 (+ ?v_83 (+ ?v_62 (+ ?v_26 (+ ?v_99 (+ ?v_12 (+ ?v_64 (+ ?v_14 (+ ?v_56 (+ ?v_3 (+ ?v_15 (+ ?v_72 (+ ?v_73 (+ ?v_36 (+ ?v_79 (+ ?v_84 (+ ?v_100 (* 2 x39))))))))))))))))))))))))) 0) (<= (+ (* (- 2) x32) (+ ?v_88 (+ ?v_119 (+ ?v_17 (+ ?v_85 (+ ?v_24 (+ ?v_53 (+ ?v_42 (+ ?v_86 (+ ?v_44 (+ ?v_0 (+ ?v_82 (+ ?v_62 (+ ?v_50 (+ ?v_64 (+ ?v_26 (+ ?v_51 (+ ?v_35 (+ ?v_14 (+ ?v_117 (+ ?v_73 (+ ?v_23 (+ ?v_30 (+ ?v_6 (+ ?v_74 (+ ?v_84 ?v_87)))))))))))))))))))))))))) 0) (<= (+ ?v_39 (+ ?v_88 (+ ?v_7 (+ ?v_41 (+ ?v_61 (+ ?v_33 (+ ?v_86 (+ ?v_45 (+ ?v_8 (+ ?v_64 (+ ?v_13 (+ ?v_71 (+ ?v_89 (+ ?v_29 (+ ?v_80 (+ ?v_36 (+ ?v_11 (+ ?v_79 (+ ?v_15 (+ ?v_77 (+ ?v_54 (+ ?v_73 (+ ?v_6 (+ ?v_84 ?v_90)))))))))))))))))))))))) 1) (<= (+ ?v_38 (+ ?v_91 (+ ?v_46 (+ ?v_33 (+ ?v_103 (+ ?v_24 (+ ?v_53 (+ ?v_92 (+ ?v_62 (+ ?v_10 (+ ?v_63 (+ ?v_64 (+ ?v_51 (+ ?v_13 (+ ?v_35 (+ ?v_71 (+ ?v_3 (+ ?v_93 (+ ?v_36 (+ ?v_1 (+ ?v_94 (+ ?v_123 (+ ?v_59 (+ ?v_15 (+ ?v_54 (+ ?v_95 (+ ?v_96 ?v_97))))))))))))))))))))))))))) 0) (<= (+ ?v_38 (+ ?v_55 (+ ?v_98 (+ ?v_46 (+ ?v_20 (+ ?v_8 (+ ?v_48 (+ ?v_49 (+ ?v_69 (+ ?v_44 (+ ?v_27 (+ ?v_83 (+ ?v_99 (+ (* 2 x2) (+ ?v_12 (+ ?v_22 (+ ?v_51 (+ ?v_13 (+ ?v_14 (+ ?v_52 (+ ?v_28 (+ ?v_60 (+ (* 2 x30) (+ ?v_74 (+ ?v_67 ?v_100))))))))))))))))))))))))) (- 1)) (<= (+ (* (- 2) x10) (+ ?v_128 (+ ?v_85 (+ ?v_7 (+ ?v_48 (+ ?v_43 (+ ?v_61 (+ ?v_50 (+ ?v_53 (+ ?v_93 (+ ?v_83 (+ ?v_9 (+ ?v_10 (+ ?v_12 (+ ?v_76 (+ ?v_54 (+ ?v_56 (+ ?v_28 (+ ?v_97 (+ ?v_30 (+ ?v_52 (+ ?v_101 ?v_113)))))))))))))))))))))) 1) (<= (+ ?v_58 (+ ?v_7 (+ ?v_43 (+ ?v_93 (+ ?v_33 (+ ?v_102 (+ ?v_80 (+ ?v_104 (+ ?v_83 (+ ?v_75 (+ ?v_61 (+ ?v_62 (+ ?v_50 (+ ?v_99 (+ ?v_12 (+ ?v_14 (+ ?v_109 (+ ?v_56 (+ ?v_112 (+ ?v_97 (+ ?v_78 (+ ?v_79 (+ ?v_100 ?v_134))))))))))))))))))))))) 0) (<= (+ ?v_103 (+ ?v_32 (+ ?v_43 (+ ?v_53 (+ ?v_34 (+ ?v_45 (+ ?v_58 (+ ?v_104 (+ ?v_11 (+ ?v_2 (+ ?v_83 (+ ?v_75 (+ ?v_50 (+ ?v_105 (+ ?v_26 (+ ?v_10 (+ ?v_12 (+ ?v_106 (+ ?v_107 (+ ?v_89 (+ ?v_14 (+ ?v_56 (+ ?v_36 (+ (* 2 x6) ?v_129)))))))))))))))))))))))) 1) (<= (+ (* (- 2) x27) (+ ?v_46 (+ ?v_17 (+ ?v_85 (+ ?v_18 (+ ?v_24 (+ ?v_41 (+ ?v_48 (+ (* 2 x15) (+ ?v_44 (+ ?v_25 (+ ?v_63 (+ ?v_96 (+ ?v_83 (+ ?v_68 (+ ?v_64 (+ ?v_51 (+ ?v_109 (+ ?v_89 (+ ?v_35 (+ ?v_29 (+ ?v_84 (+ ?v_67 (+ ?v_101 (+ ?v_60 (+ ?v_37 ?v_108)))))))))))))))))))))))))) 0) (<= (+ ?v_110 (+ ?v_39 (+ ?v_7 (+ ?v_49 (+ ?v_111 (+ ?v_58 (+ ?v_1 (+ ?v_19 (+ ?v_92 (+ ?v_83 (+ ?v_68 (+ ?v_12 (+ ?v_106 (+ ?v_35 (+ ?v_54 (+ ?v_29 (+ ?v_112 (+ ?v_30 (+ ?v_95 (+ ?v_6 (+ ?v_4 (+ ?v_36 (+ ?v_74 (+ ?v_31 ?v_126)))))))))))))))))))))))) 1) (<= (+ ?v_85 (+ ?v_41 (+ ?v_48 (+ ?v_33 (+ ?v_44 (+ ?v_25 (+ ?v_20 (+ ?v_69 (+ ?v_27 (+ ?v_71 (+ ?v_93 (+ ?v_83 (+ ?v_105 (+ ?v_51 (+ ?v_36 (+ ?v_21 (+ ?v_22 (+ ?v_76 (+ ?v_65 (+ ?v_54 (+ ?v_28 (+ ?v_30 (+ ?v_101 (+ ?v_6 ?v_94)))))))))))))))))))))))) (- 1)) (<= (+ ?v_55 (+ ?v_122 (+ ?v_69 (+ ?v_114 (+ ?v_115 (+ ?v_17 (+ ?v_18 (+ ?v_19 (+ ?v_41 (+ ?v_83 (+ ?v_10 (+ ?v_12 (+ ?v_64 (+ ?v_13 (+ ?v_29 (+ ?v_78 (+ ?v_74 (+ ?v_94 (+ ?v_52 (+ ?v_15 (+ ?v_21 (+ ?v_112 (+ ?v_73 ?v_113))))))))))))))))))))))) 0) (<= (+ ?v_18 (+ ?v_135 (+ ?v_32 (+ ?v_46 (+ ?v_19 (+ ?v_69 (+ ?v_63 (+ ?v_35 (+ ?v_80 (+ ?v_104 (+ ?v_47 (+ ?v_1 (+ ?v_83 (+ ?v_51 (+ ?v_99 (+ ?v_109 (+ ?v_76 (+ ?v_56 (+ ?v_28 (+ ?v_73 (+ ?v_108 ?v_121))))))))))))))))))))) 0) (<= (+ ?v_24 (+ ?v_32 (+ ?v_116 (+ ?v_40 (+ ?v_58 (+ ?v_1 (+ ?v_41 (+ ?v_86 (+ ?v_92 (+ ?v_61 (+ ?v_23 (+ ?v_11 (+ ?v_75 (+ ?v_62 (+ ?v_9 (+ ?v_64 (+ ?v_13 (+ ?v_107 (+ ?v_89 (+ ?v_117 (+ ?v_97 (+ ?v_36 (+ ?v_37 (+ ?v_5 (+ ?v_79 ?v_67))))))))))))))))))))))))) 1) (<= (+ ?v_85 (+ ?v_7 (+ ?v_41 (+ ?v_86 (+ ?v_34 (+ ?v_114 (+ ?v_116 (+ ?v_71 (+ ?v_115 (+ ?v_83 (+ ?v_9 (+ ?v_89 (+ ?v_15 (+ ?v_68 (+ ?v_77 (+ ?v_109 (+ ?v_81 (+ ?v_29 (+ ?v_97 (+ ?v_95 (+ ?v_4 (+ ?v_79 (+ ?v_100 (+ ?v_118 (+ ?v_37 (+ ?v_90 ?v_108)))))))))))))))))))))))))) 0) (<= (+ (* (- 2) x24) (+ ?v_98 (+ ?v_119 (+ ?v_33 (+ ?v_103 (+ ?v_24 (+ ?v_125 (+ ?v_42 (+ ?v_34 (+ ?v_25 (+ ?v_9 (+ ?v_63 (+ ?v_27 (+ ?v_116 (+ ?v_40 (+ ?v_83 (+ ?v_117 (+ ?v_81 (+ ?v_3 (+ ?v_97 (+ ?v_30 (+ ?v_36 (+ ?v_94 (+ ?v_52 (+ ?v_79 (+ ?v_120 ?v_121)))))))))))))))))))))))))) 0) (<= (+ ?v_122 (+ ?v_38 (+ ?v_18 (+ ?v_32 (+ ?v_46 (+ ?v_111 (+ ?v_8 (+ ?v_71 (+ ?v_123 (+ ?v_17 (+ ?v_86 (+ ?v_23 (+ ?v_83 (+ ?v_50 (+ ?v_10 (+ ?v_21 (+ ?v_77 (+ ?v_107 (+ ?v_143 (+ ?v_81 (+ ?v_30 (+ ?v_59 (+ ?v_6 (+ ?v_31 (+ ?v_124 (+ ?v_118 ?v_113)))))))))))))))))))))))))) 0) (<= (+ ?v_19 (+ ?v_16 (+ ?v_46 (+ ?v_43 (+ ?v_125 (+ ?v_70 (+ ?v_8 (+ ?v_40 (+ ?v_13 (+ ?v_71 (+ ?v_127 (+ ?v_15 (+ ?v_77 (+ ?v_107 (+ ?v_81 (+ ?v_28 (+ ?v_72 (+ ?v_97 (+ ?v_100 ?v_130))))))))))))))))))) 1) (<= (+ ?v_20 (+ ?v_116 (+ ?v_58 (+ ?v_93 (+ ?v_115 (+ ?v_123 (+ ?v_17 (+ ?v_19 (+ ?v_24 (+ ?v_41 (+ ?v_49 (+ ?v_43 (+ ?v_61 (+ ?v_26 (+ ?v_11 (+ ?v_12 (+ ?v_106 (+ ?v_14 (+ ?v_56 (+ ?v_127 (+ ?v_109 (+ ?v_81 (+ ?v_97 (+ ?v_95 ?v_37)))))))))))))))))))))))) 0) (<= (+ ?v_128 (+ ?v_38 (+ ?v_47 (+ ?v_2 (+ ?v_61 (+ ?v_50 (+ ?v_125 (+ ?v_26 (+ ?v_82 (+ ?v_10 (+ ?v_64 (+ ?v_51 (+ ?v_35 (+ ?v_76 (+ ?v_56 (+ ?v_3 (+ ?v_52 (+ ?v_15 (+ ?v_112 (+ ?v_72 (+ ?v_96 (+ ?v_97 (+ ?v_67 (+ ?v_124 (+ ?v_60 ?v_129))))))))))))))))))))))))) 0) (<= (+ ?v_17 (+ ?v_18 (+ ?v_41 (+ ?v_49 (+ ?v_43 (+ ?v_45 (+ ?v_26 (+ ?v_10 (+ ?v_22 (+ ?v_51 (+ ?v_13 (+ ?v_106 (+ ?v_54 (+ ?v_11 (+ ?v_47 (+ ?v_83 (+ ?v_89 (+ ?v_56 (+ ?v_77 (+ ?v_97 (+ ?v_30 (+ ?v_78 (+ ?v_6 (+ ?v_4 (+ ?v_84 ?v_130))))))))))))))))))))))))) 0) (<= (+ ?v_32 (+ ?v_17 (+ ?v_19 (+ ?v_131 (+ ?v_86 (+ ?v_34 (+ ?v_25 (+ ?v_111 (+ ?v_71 (+ ?v_1 (+ ?v_83 (+ ?v_105 (+ ?v_62 (+ (* 2 x20) (+ ?v_9 (+ ?v_51 (+ ?v_76 (+ ?v_65 (+ ?v_54 (+ ?v_3 (+ ?v_97 (+ ?v_59 (+ ?v_4 (+ ?v_84 (+ ?v_95 ?v_118))))))))))))))))))))))))) 0) (<= (+ ?v_139 (+ ?v_16 (+ ?v_32 (+ ?v_20 (+ ?v_69 (+ ?v_132 (+ ?v_133 (+ ?v_92 (+ ?v_75 (+ ?v_62 (+ ?v_64 (+ ?v_51 (+ ?v_89 (+ ?v_65 (+ ?v_54 (+ (* 2 x17) (+ (* (- 2) x34) (+ ?v_59 (+ ?v_79 (+ ?v_67 (+ ?v_96 ?v_134))))))))))))))))))))) 0) (<= (+ ?v_135 (+ ?v_98 (+ ?v_85 (+ ?v_49 (+ ?v_61 (+ ?v_50 (+ ?v_93 (+ (* 2 x16) (+ ?v_80 (+ ?v_75 (+ ?v_21 (+ ?v_12 (+ ?v_64 (+ ?v_106 (+ ?v_35 (+ ?v_127 (+ ?v_54 (+ ?v_136 (+ ?v_97 (+ ?v_74 (+ ?v_94 (+ ?v_100 ?v_137)))))))))))))))))))))) 1) (<= (+ ?v_46 (+ ?v_20 (+ ?v_111 (+ ?v_8 (+ ?v_116 (+ ?v_85 (+ ?v_18 (+ ?v_24 (+ ?v_49 (+ ?v_125 (+ ?v_9 (+ ?v_13 (+ ?v_138 (+ ?v_89 (+ ?v_14 (+ ?v_56 (+ ?v_29 (+ ?v_4 (+ ?v_74 (+ ?v_5 (+ ?v_79 (+ ?v_127 (+ ?v_77 (+ ?v_28 (+ ?v_142 (+ ?v_97 (+ ?v_67 (+ ?v_101 ?v_37)))))))))))))))))))))))))))) 0) (<= (+ (* (- 2) x1) (+ ?v_103 (+ ?v_16 (+ ?v_32 (+ ?v_43 (+ ?v_125 (+ ?v_114 (+ ?v_40 (+ ?v_115 (+ ?v_33 (+ ?v_92 (+ ?v_68 (+ ?v_29 (+ ?v_99 (+ ?v_22 (+ ?v_65 (+ ?v_66 (+ ?v_62 (+ ?v_30 (+ ?v_96 (+ ?v_127 (+ ?v_77 (+ ?v_97 ?v_130))))))))))))))))))))))) 0) (<= (+ (* (- 2) x21) (+ ?v_128 (+ ?v_18 (+ ?v_55 (+ ?v_46 (+ ?v_43 (+ ?v_125 (+ ?v_70 (+ ?v_114 (+ ?v_40 (+ ?v_71 (+ ?v_58 (+ ?v_93 (+ ?v_115 (+ ?v_123 (+ ?v_62 (+ ?v_12 (+ ?v_64 (+ ?v_13 (+ ?v_78 (+ ?v_74 (+ ?v_127 (+ ?v_65 (+ ?v_31 ?v_113)))))))))))))))))))))))) 0) (<= (+ ?v_39 (+ ?v_98 (+ ?v_69 (+ (* (- 2) x25) (+ ?v_140 (+ ?v_58 (+ ?v_17 (+ ?v_50 (+ ?v_64 (+ ?v_35 (+ ?v_125 (+ ?v_109 (+ (* 2 x33) (+ ?v_80 (+ ?v_78 (+ ?v_59 (+ ?v_104 (+ ?v_36 (+ ?v_47 (+ ?v_1 (+ ?v_12 (+ ?v_74 (+ ?v_79 (+ ?v_127 ?v_31)))))))))))))))))))))))) (- 1)) (<= (+ ?v_55 (+ ?v_91 (+ ?v_85 (+ ?v_18 (+ ?v_49 (+ ?v_43 (+ ?v_33 (+ ?v_53 (+ ?v_25 (+ ?v_20 (+ ?v_9 (+ ?v_99 (+ ?v_63 (+ ?v_64 (+ ?v_82 (+ ?v_51 (+ ?v_127 (+ ?v_76 (+ ?v_65 (+ ?v_54 (+ ?v_57 (+ ?v_1 (+ ?v_123 (+ ?v_29 (+ ?v_78 (+ ?v_104 (+ ?v_6 (+ ?v_74 ?v_94)))))))))))))))))))))))))))) 1) (<= (+ ?v_139 (+ ?v_140 (+ ?v_128 (+ ?v_116 (+ ?v_47 (+ ?v_24 (+ ?v_49 (+ ?v_111 (+ ?v_92 (+ ?v_61 (+ ?v_10 (+ ?v_12 (+ ?v_51 (+ ?v_13 (+ ?v_89 (+ ?v_14 (+ ?v_29 (+ ?v_36 (+ ?v_5 (+ ?v_79 (+ ?v_127 (+ ?v_15 (+ ?v_28 (+ ?v_73 ?v_100)))))))))))))))))))))))) (- 1)) (<= (+ ?v_103 (+ ?v_7 (+ ?v_16 (+ ?v_48 (+ ?v_25 (+ ?v_61 (+ ?v_9 (+ ?v_82 (+ ?v_10 (+ ?v_89 (+ ?v_35 (+ ?v_30 (+ ?v_78 (+ ?v_74 (+ ?v_5 (+ ?v_79 (+ ?v_127 (+ ?v_77 (+ ?v_54 (+ ?v_141 (+ ?v_107 (+ ?v_84 (+ ?v_31 (+ ?v_101 (+ ?v_100 (+ ?v_124 ?v_37)))))))))))))))))))))))))) (- 1)) (<= (+ ?v_128 (+ ?v_103 (+ ?v_50 (+ ?v_35 (+ ?v_3 (+ ?v_36 (+ ?v_52 (+ ?v_24 (+ ?v_49 (+ ?v_53 (+ ?v_125 (+ ?v_105 (+ ?v_26 (+ ?v_29 (+ ?v_99 (+ ?v_22 (+ ?v_109 (+ ?v_76 (+ ?v_142 (+ ?v_23 (+ ?v_66 (+ ?v_11 (+ ?v_67 (+ ?v_124 (+ ?v_37 ?v_143))))))))))))))))))))))))) 0)))))))
(check-sat)
(exit)
